NAME : E033-04g.837672.tour
COMMENT : Length = 837672
COMMENT : Found by LKH [Keld Helsgaun] Tue May  8 13:50:36 2018
TYPE : TOUR
DIMENSION : 36
TOUR_SECTION
1
2
16
27
28
17
29
30
35
14
18
26
25
24
23
21
22
20
19
11
7
6
4
36
31
15
32
34
3
13
12
33
9
10
8
5
-1
EOF
